% File represents an instance of a Composite Structure problem to be solved by a CP framework
% Created on 2025-03-26 10:41:47.984
T = 50;
n = 36;
m = 60;
edges = [(1, 2),
(7, 8),
(13, 14),
(19, 20),
(26, 25),
(31, 32),
(2, 3),
(8, 9),
(14, 15),
(20, 21),
(26, 27),
(32, 33),
(4, 3),
(10, 9),
(16, 15),
(22, 21),
(27, 28),
(34, 33),
(4, 5),
(10, 11),
(16, 17),
(22, 23),
(28, 29),
(35, 34),
(6, 5),
(12, 11),
(18, 17),
(24, 23),
(29, 30),
(35, 36),
(1, 7),
(7, 13),
(13, 19),
(25, 19),
(31, 25),
(2, 8),
(8, 14),
(14, 20),
(26, 20),
(26, 32),
(3, 9),
(9, 15),
(15, 21),
(27, 21),
(27, 33),
(4, 10),
(10, 16),
(16, 22),
(28, 22),
(28, 34),
(5, 11),
(11, 17),
(17, 23),
(29, 23),
(35, 29),
(6, 12),
(12, 18),
(18, 24),
(24, 30),
(36, 30)];
counts = [|6, 20, 6, 18,
|4, 18, 4, 18,
|2, 18, 2, 16,
|4, 20, 4, 16,
|4, 18, 4, 16,
|4, 22, 4, 18,
|6, 16, 6, 16,
|4, 14, 4, 16,
|2, 14, 2, 14,
|4, 14, 4, 16,
|4, 12, 4, 16,
|4, 16, 4, 18,
|4, 14, 4, 16,
|2, 14, 2, 16,
|2, 12, 2, 12,
|4, 14, 4, 12,
|4, 12, 4, 10,
|4, 12, 4, 16,
|2, 14, 2, 16,
|2, 12, 2, 16,
|2, 10, 2, 12,
|2, 12, 2, 12,
|2, 12, 2, 8,
|4, 12, 4, 10,
|2, 16, 2, 16,
|2, 18, 2, 16,
|2, 12, 2, 16,
|2, 12, 2, 14,
|2, 12, 2, 10,
|2, 10, 2, 10,
|2, 16, 2, 18,
|2, 12, 2, 16,
|2, 12, 2, 10,
|2, 12, 2, 12,
|2, 14, 2, 14,
|2, 12, 2, 14|];
